NAME: tsp-a-16
TYPE: TSP
COMMENT: min_cost = 885.18
DIMENSION: 16
EDGE_WEIGHT_TYPE: EUC_2D
NODE_COORD_SECTION
1 116 201
2 51 131
3 151 11
4 155 43
5 16 242
6 247 206
7 77 25
8 175 112
9 31 126
10 8 232
11 66 169
12 79 133
13 139 47
14 248 198
15 240 229
16 153 235
EOF
